n_machines = 5;
n_resources = 6;
n_jobs = 30;
horizon = 16813;
LB = 3853;
n_jobs_per_resource = [5, 5, 5, 5, 5, 5];
duration = [20, 555, 534, 929, 441, 944, 200, 132, 581, 84, 898, 791, 913, 953, 298, 803, 266, 141, 60, 998, 453, 278, 492, 536, 949, 818, 495, 675, 745, 831]